certificates/rado_a15_c265_N51.cnf
c Rad2 upper bound instance: x1 + 15*x2 - x3 = 265, interval [1,51]
p cnf 51 344
1 6 18 0
-1 -6 -18 0
1 19 21 0
-1 -19 -21 0
1 20 36 0
-1 -20 -36 0
1 21 51 0
-1 -21 -51 0
2 7 18 0
-2 -7 -18 0
2 19 22 0
-2 -19 -22 0
2 20 37 0
-2 -20 -37 0
3 8 18 0
-3 -8 -18 0
3 19 23 0
-3 -19 -23 0
3 20 38 0
-3 -20 -38 0
4 9 18 0
-4 -9 -18 0
4 19 24 0
-4 -19 -24 0
4 20 39 0
-4 -20 -39 0
5 10 18 0
-5 -10 -18 0
5 19 25 0
-5 -19 -25 0
5 20 40 0
-5 -20 -40 0
6 11 18 0
-6 -11 -18 0
6 19 26 0
-6 -19 -26 0
6 20 41 0
-6 -20 -41 0
7 12 18 0
-7 -12 -18 0
7 19 27 0
-7 -19 -27 0
7 20 42 0
-7 -20 -42 0
8 13 18 0
-8 -13 -18 0
8 19 28 0
-8 -19 -28 0
8 20 43 0
-8 -20 -43 0
9 14 18 0
-9 -14 -18 0
9 19 29 0
-9 -19 -29 0
9 20 44 0
-9 -20 -44 0
10 15 18 0
-10 -15 -18 0
10 19 30 0
-10 -19 -30 0
10 20 45 0
-10 -20 -45 0
1 11 17 0
-1 -11 -17 0
11 16 18 0
-11 -16 -18 0
11 19 31 0
-11 -19 -31 0
11 20 46 0
-11 -20 -46 0
2 12 17 0
-2 -12 -17 0
12 17 18 0
-12 -17 -18 0
12 19 32 0
-12 -19 -32 0
12 20 47 0
-12 -20 -47 0
3 13 17 0
-3 -13 -17 0
13 18 0
-13 -18 0
13 19 33 0
-13 -19 -33 0
13 20 48 0
-13 -20 -48 0
4 14 17 0
-4 -14 -17 0
14 18 19 0
-14 -18 -19 0
14 19 34 0
-14 -19 -34 0
14 20 49 0
-14 -20 -49 0
5 15 17 0
-5 -15 -17 0
15 18 20 0
-15 -18 -20 0
15 19 35 0
-15 -19 -35 0
15 20 50 0
-15 -20 -50 0
6 16 17 0
-6 -16 -17 0
16 18 21 0
-16 -18 -21 0
16 19 36 0
-16 -19 -36 0
16 20 51 0
-16 -20 -51 0
7 17 0
-7 -17 0
17 18 22 0
-17 -18 -22 0
17 19 37 0
-17 -19 -37 0
8 17 18 0
-8 -17 -18 0
18 23 0
-18 -23 0
18 19 38 0
-18 -19 -38 0
9 17 19 0
-9 -17 -19 0
18 19 24 0
-18 -19 -24 0
19 39 0
-19 -39 0
10 17 20 0
-10 -17 -20 0
18 20 25 0
-18 -20 -25 0
19 20 40 0
-19 -20 -40 0
11 17 21 0
-11 -17 -21 0
18 21 26 0
-18 -21 -26 0
19 21 41 0
-19 -21 -41 0
12 17 22 0
-12 -17 -22 0
18 22 27 0
-18 -22 -27 0
19 22 42 0
-19 -22 -42 0
13 17 23 0
-13 -17 -23 0
18 23 28 0
-18 -23 -28 0
19 23 43 0
-19 -23 -43 0
14 17 24 0
-14 -17 -24 0
18 24 29 0
-18 -24 -29 0
19 24 44 0
-19 -24 -44 0
15 17 25 0
-15 -17 -25 0
18 25 30 0
-18 -25 -30 0
19 25 45 0
-19 -25 -45 0
1 16 26 0
-1 -16 -26 0
16 17 26 0
-16 -17 -26 0
18 26 31 0
-18 -26 -31 0
19 26 46 0
-19 -26 -46 0
2 16 27 0
-2 -16 -27 0
17 27 0
-17 -27 0
18 27 32 0
-18 -27 -32 0
19 27 47 0
-19 -27 -47 0
3 16 28 0
-3 -16 -28 0
17 18 28 0
-17 -18 -28 0
18 28 33 0
-18 -28 -33 0
19 28 48 0
-19 -28 -48 0
4 16 29 0
-4 -16 -29 0
17 19 29 0
-17 -19 -29 0
18 29 34 0
-18 -29 -34 0
19 29 49 0
-19 -29 -49 0
5 16 30 0
-5 -16 -30 0
17 20 30 0
-17 -20 -30 0
18 30 35 0
-18 -30 -35 0
19 30 50 0
-19 -30 -50 0
6 16 31 0
-6 -16 -31 0
17 21 31 0
-17 -21 -31 0
18 31 36 0
-18 -31 -36 0
19 31 51 0
-19 -31 -51 0
7 16 32 0
-7 -16 -32 0
17 22 32 0
-17 -22 -32 0
18 32 37 0
-18 -32 -37 0
8 16 33 0
-8 -16 -33 0
17 23 33 0
-17 -23 -33 0
18 33 38 0
-18 -33 -38 0
9 16 34 0
-9 -16 -34 0
17 24 34 0
-17 -24 -34 0
18 34 39 0
-18 -34 -39 0
10 16 35 0
-10 -16 -35 0
17 25 35 0
-17 -25 -35 0
18 35 40 0
-18 -35 -40 0
11 16 36 0
-11 -16 -36 0
17 26 36 0
-17 -26 -36 0
18 36 41 0
-18 -36 -41 0
12 16 37 0
-12 -16 -37 0
17 27 37 0
-17 -27 -37 0
18 37 42 0
-18 -37 -42 0
13 16 38 0
-13 -16 -38 0
17 28 38 0
-17 -28 -38 0
18 38 43 0
-18 -38 -43 0
14 16 39 0
-14 -16 -39 0
17 29 39 0
-17 -29 -39 0
18 39 44 0
-18 -39 -44 0
15 16 40 0
-15 -16 -40 0
17 30 40 0
-17 -30 -40 0
18 40 45 0
-18 -40 -45 0
1 15 41 0
-1 -15 -41 0
16 41 0
-16 -41 0
17 31 41 0
-17 -31 -41 0
18 41 46 0
-18 -41 -46 0
2 15 42 0
-2 -15 -42 0
16 17 42 0
-16 -17 -42 0
17 32 42 0
-17 -32 -42 0
18 42 47 0
-18 -42 -47 0
3 15 43 0
-3 -15 -43 0
16 18 43 0
-16 -18 -43 0
17 33 43 0
-17 -33 -43 0
18 43 48 0
-18 -43 -48 0
4 15 44 0
-4 -15 -44 0
16 19 44 0
-16 -19 -44 0
17 34 44 0
-17 -34 -44 0
18 44 49 0
-18 -44 -49 0
5 15 45 0
-5 -15 -45 0
16 20 45 0
-16 -20 -45 0
17 35 45 0
-17 -35 -45 0
18 45 50 0
-18 -45 -50 0
6 15 46 0
-6 -15 -46 0
16 21 46 0
-16 -21 -46 0
17 36 46 0
-17 -36 -46 0
18 46 51 0
-18 -46 -51 0
7 15 47 0
-7 -15 -47 0
16 22 47 0
-16 -22 -47 0
17 37 47 0
-17 -37 -47 0
8 15 48 0
-8 -15 -48 0
16 23 48 0
-16 -23 -48 0
17 38 48 0
-17 -38 -48 0
9 15 49 0
-9 -15 -49 0
16 24 49 0
-16 -24 -49 0
17 39 49 0
-17 -39 -49 0
10 15 50 0
-10 -15 -50 0
16 25 50 0
-16 -25 -50 0
17 40 50 0
-17 -40 -50 0
11 15 51 0
-11 -15 -51 0
16 26 51 0
-16 -26 -51 0
17 41 51 0
-17 -41 -51 0
