certificates/rado_a15_c265_N51.drat
18 -47 -48 0
-47 -48 -51 0
23 -48 -51 0
-48 -51 0
d 23 -48 -51 0
-23 -49 48 0
23 -51 0
-51 0
-23 48 0
d -23 -49 48 0
48 0
23 0
-18 0
-16 0
13 0
46 0
-47 0
11 0
21 0
41 0
43 0
26 0
20 0
-17 0
0
